61
125
86	1
85	3
84	4
83	3
82	5
81	4
80	2
79	3
78	3
77	8
76	3
75	4
74	3
73	4
72	9
71	3
70	3
68	2
67	2
66	5
65	1
64	3
63	4
62	2
61	6
60	3
59	2
58	5
57	1
56	7
55	7
54	2
53	3
52	3
51	3
50	5
49	1
48	4
47	4
46	3
45	3
44	2
43	4
42	3
41	2
40	2
39	3
38	2
37	1
36	2
35	2
34	4
33	4
32	1
31	5
30	4
29	3
28	1
27	1
26	2
25	6
